GLPSOL--GLPK LP/MIP Solver 5.0
Parameter(s) specified in the command line:
 --lp ../modeles/15_199.lp --log 15_199.log
Reading problem data from '../modeles/15_199.lp'...
3046 rows, 6000 columns, 20970 non-zeros
2985 integer variables, all of which are binary
9067 lines were read
GLPK Integer Optimizer 5.0
3046 rows, 6000 columns, 20970 non-zeros
2985 integer variables, all of which are binary
Preprocessing...
2970 constraint coefficient(s) were reduced
3046 rows, 5985 columns, 20955 non-zeros
2985 integer variables, all of which are binary
Scaling...
 A: min|aij| =  1.010e-04  max|aij| =  4.000e+00  ratio =  3.960e+04
GM: min|aij| =  7.089e-02  max|aij| =  1.411e+01  ratio =  1.990e+02
EQ: min|aij| =  5.025e-03  max|aij| =  1.000e+00  ratio =  1.990e+02
2N: min|aij| =  3.906e-03  max|aij| =  1.737e+00  ratio =  4.446e+02
Constructing initial basis...
Size of triangular part is 3046
Solving LP relaxation...
GLPK Simplex Optimizer 5.0
3046 rows, 5985 columns, 20955 non-zeros
      0: obj =   3.000000000e+01 inf =   7.450e+01 (31)
    194: obj =   4.992550505e-01 inf =   0.000e+00 (0)
*   668: obj =  -3.870361422e+00 inf =   0.000e+00 (0) 1
OPTIMAL LP SOLUTION FOUND
Integer optimization begins...
Long-step dual simplex will be used
+   668: mip =     not found yet >=              -inf        (1; 0)
+   893: >>>>>  -3.870361422e+00 >=  -3.870361422e+00 < 0.1% (218; 0)
+   893: mip =  -3.870361422e+00 >=     tree is empty   0.0% (0; 435)
INTEGER OPTIMAL SOLUTION FOUND
Time used:   1.4 secs
Memory used: 8.7 Mb (9095375 bytes)
